26 26
22
3 3 3 0
3 4 6 0
3 5 20 0
3 6 6 4
3 7 23 0
3 8 3 18
3 9 0 0
3 10 20 16
3 11 20 5
3 12 13 14
3 14 13 0
3 15 3 3
3 16 6 10
3 17 0 9
3 19 23 7
4 3 16 5
4 4 9 8
4 5 16 0
4 7 16 8
4 8 9 0
4 11 16 15
4 14 9 12
